c b=2,c=609
p cnf 13 23
2 -4 0
1 2 -9 0
2 -10 0
2 -13 0
-2 4 0
1 -2 9 0
1 -2 10 0
-2 13 0
1 -3 0
1 -8 0
1 -11 0
1 -12 0
-1 2 9 0
2 -11 0
-1 -2 -9 0
-1 -2 11 0
-1 3 0
-1 8 0
-1 -10 0
-1 12 0
-5 0
-6 0
-7 0
